webassembly/ejemplos_dzn/folder14_json_61.dzn
TERM = { '.', 's(2)', 's(5)', 's(4)', 'local_0', 'local_1', 's(8)', 's(6)', 's(1)', 's(0)', 's(7)', 's(3)', 'in_0'};
null = '.';
s = 14;
n = 9;
ndeps = 5;
max_registers_sz = 5;
NR = 2;
registers = [|'local_0', 's(4)', |'local_1', 'in_0'|];
dependencies = [|'i32.load_2', 'call[function_index(0)]_3', |'call[function_index(0)]_3', 'i32.store_4', |'i32.store_4', 'call[function_index(1)]_7', |'call[function_index(1)]_7', 'i32.load16_u_11', |'i32.load16_u_11', 'call[function_index(2)]_12'|];
GET_ENUM = { GET1, GET2, GET3, GET4, GET5, GET6, GET7};
SET_ENUM = { SET1, SET2, SET3, SET4, SET5, SET6, SET7};
TEE_ENUM = { TEE1, TEE2, TEE3, TEE4, TEE5, TEE6, TEE7};
N = 7;
OP = { 'call[function_index(0)]_3', 'call[function_index(1)]_7', 'call[function_index(2)]_12', 'i32.load_2', 'i32.store_4', 'i32.add_0', 'i32.load16_u_11' };
in_ops = [0, 1, 1, 1, 2, 2, 1 ];
out_ops = [1, 3, 2, 1, 0, 1, 1 ];
in1 = ['.', 'in_0', 's(6)', 'local_0', 's(1)', 's(3)', 's(5)' ];
in2 = ['.', '.', '.', '.', 's(0)', 's(2)', '.' ];
in3 = ['.', '.', '.', '.', '.', '.', '.' ];
out1 = ['s(1)', 's(4)', 's(8)', 's(0)', '.', 's(5)', 's(6)' ];
out2 = ['.', 's(3)', 's(7)', '.', '.', '.', '.' ];
out3 = ['.', 's(2)', '.', '.', '.', '.', '.' ];
comm = [false, false, false, false, false, true, false ];
gas = [1, 1, 1, 1, 1, 1, 1 ];
sz = [1, 1, 1, 1, 1, 1, 1 ];
stor = [true, true, true, false, true, false, false ];
lb = [ 1, 1, 1, 1, 1, 1, 1 ];
ub = [ 14, 14, 14, 14, 14, 14, 14 ];
startstack = [ 'in_0', null, null, null, null, null, null, null, null ];
endstack = [ 'in_0', 's(8)', 's(7)', 'local_0', null, null, null, null, null ];
