webassembly/ejemplos_results/folder14_json_61.txt
=====UNSATISFIABLE=====
% time elapsed: 0.73 s
